gil262_1
0 175 236 94 169 261 74 249 189 81 202 20 135 130 15 147 96 158 134 235 55 237 253 247 23 226 143 69 215 205 113 126 160 38 21 165 242 182 14 207 39 185 11 66 42 30 149 136 61 24 145 17 203 91 31 197 84 45 246 80 154 244 111 82 120 256 221 127 157 112 150 33 198 93 16 200 7 107 46 194 40 168 47 251 156 204 196 230 131 106 163 98 161 259 100 62 89 103 105 199 173 191 58 228 75 192 164 212 1 220 258 37 153 116 86 227 138 128 28 255 18 177 49 56 211 34 132 35 248 123 208 60 186 155 26 119 110 252 129 4 104 190 222 53 122 72 121 32 239 41 109 144 117 97 234 181 193 183 71 174 87 231 27 114 51 50 254 68 187 67 59 180 78 5 22 250 54 209 206 92 125 115 29 36 52 139 257 159 146 170 0